 | Materials Studio CASTEP version 2020            |
 | Ab Initio Total Energy Program                  |
 | Authors:                                        |
 | M. Segall, M. Probert, C. Pickard, P. Hasnip,   |
 | S. Clark, K. Refson, J. R. Yates, M. Payne      |
 | Contributors:                                   |
 | P. Lindan, P. Haynes, J. White, V. Milman,      |
 | N. Govind, M. Gibson, P. Tulip, V. Cocula,      |
 | B. Montanari, D. Quigley, M. Glover,            |
 | L. Bernasconi, A. Perlov, M. Plummer,           |
 | E. McNellis, J. Meyer, J. Gale, D. Jochym       |
 | J. Aarons, B. Walker, R. Gillen, D. Jones       |
 | T. Green, I. J. Bush, C. J. Armstrong,          |
 | E. J. Higgins, E. L. Brown, M. S. McFly,        |
 | J. Wilkins, B-C. Shih, P. J. P. Byrne,          |
 | R. J. Maurer, J. C. Womack, J. Dziedzic,        |
 | A. Bartok-Partay                                |
 | Copyright (c) 2000 - 2019                       |
 | Please cite                                     |
 |     "First principles methods using CASTEP"     |
 |         Zeitschrift fuer Kristallographie       |
 |           220(5-6) pp. 567-570 (2005)           |
 | S. J. Clark, M. D. Segall, C. J. Pickard,       |
 | P. J. Hasnip, M. J. Probert, K. Refson,         |
 | M. C. Payne                                     |
 |       in all publications arising from          |
 |              your use of CASTEP                 |

 This version was compiled for x86_64-windows-msvc2015 on Oct 17 2019
 Code version:    8433
 Intel(R) Math Kernel Library Version 2019.0.4
 Fundamental constants values: CODATA 2014

 Atomic calculation performed for Si: 1s2 2s2 2p6 3s2 3p2

 Converged in 54 iterations to an ae energy of -7886.857 eV

 Identity difference: 1.35E-04

   | Pseudopotential Report - Date of generation 16-04-2023   |
   | Element: Si Ionic charge:  4.00 Level of theory: PBE     |
   | Atomic Solver: Koelling-Harmon                           |
   |               Reference Electronic Structure             |
   |         Orbital         Occupation         Energy        |
   |            3s              2.000           -0.397        |
   |            3p              2.000           -0.150        |
   |                 Pseudopotential Definition               |
   |        Beta     l      e      Rc     scheme   norm       |
   |          1      0   -0.397   1.797     qc      0         |
   |          2      0    0.250   1.797     qc      0         |
   |          3      1   -0.150   1.797     qc      0         |
   |          4      1    0.250   1.797     qc      0         |
   |          5      2    0.000   1.797     qc      0         |
   |          6      2    0.250   1.797     qc      0         |
   |         loc     3    0.000   1.797     pn      0         |
   | Augmentation charge Rinner = 1.255                       |
   | Partial core correction Rc = 1.255                       |
   | "3|1.8|3.6|5|7|30UU:31UU:32UU[]"                         |
   |      Author: Chris J. Pickard, Cambridge University      |

 Doing a self consistent calculation for the test configuration

 Atomic calculation performed for Si: 1s2 2s2 2p6 3s2 3p2

 Converged in 54 iterations to an ae energy of -7886.857 eV

 AE eigenvalue nl 10 =      -65.63192903
 AE eigenvalue nl 20 =       -5.12654326
 AE eigenvalue nl 21 =       -3.51173659
 AE eigenvalue nl 30 =       -0.39736430
 AE eigenvalue nl 31 =       -0.14998156
 PS eigenvalue nl 30 =       -0.39734684
 PS eigenvalue nl 31 =       -0.14996575
 Maximum eigenvalue error:   1.75E-05

 Derived cutoff energies: C=   1 M=   4 F=   4 E=   6

 Checking for ghost states up to   1.41091 Ha

 No Ghost States Identified

 Pseudo atomic calculation performed for Si 3s2 3p2

 Converged in 15 iterations to a total energy of -164.8513 eV
 Calculation parallelised over 12 processes.
 Data is distributed by G-vector(12-way)

 ************************************ Title ************************************
 CASTEP calculation from Materials Studio

 ***************************** General Parameters ******************************

 output verbosity                               : normal  (1)
 write checkpoint data to                       : Si-gmtopt_5.43_CASTEP_.check
 type of calculation                            : geometry optimization
 stress calculation                             : on
 density difference calculation                 : off
 electron localisation func (ELF) calculation   : off
 Hirshfeld analysis                             : off
 molecular orbital projected DOS                : off
 deltaSCF calculation                           : off
 unlimited duration calculation
 timing information                             : on
 write extra output files                       : on
 write final potential to formatted file        : off
 write final density to formatted file          : off
 write BibTeX reference list                    : on
 write OTFG pseudopotential files               : on
 write electrostatic potential file             : on
 write bands file                               : on
 checkpoint writing                             : both castep_bin and check files

 output         length unit                     : A
 output           mass unit                     : amu
 output           time unit                     : ps
 output         charge unit                     : e
 output           spin unit                     : hbar/2
 output         energy unit                     : eV
 output          force unit                     : eV/A
 output       velocity unit                     : A/ps
 output       pressure unit                     : GPa
 output     inv_length unit                     : 1/A
 output      frequency unit                     : cm-1
 output force constant unit                     : eV/A**2
 output         volume unit                     : A**3
 output   IR intensity unit                     : (D/A)**2/amu
 output         dipole unit                     : D
 output         efield unit                     : eV/A/e
 output        entropy unit                     : J/mol/K
 output    efield chi2 unit                     : pm/V

 wavefunctions paging                           : none
 random number generator seed                   : randomised (184121810)
 data distribution                              : optimal for this architecture
 optimization strategy                          : maximize speed(+++)

 *********************** Exchange-Correlation Parameters ***********************

 using functional                               : Perdew Burke Ernzerhof
 relativistic treatment                         : Koelling-Harmon
 DFT+D: Semi-empirical dispersion correction    : off

 ************************* Pseudopotential Parameters **************************

 pseudopotential representation                 : reciprocal space
 <beta|phi> representation                      : reciprocal space
 spin-orbit coupling                            : off

 **************************** Basis Set Parameters *****************************

 plane wave basis set cut-off                   :   136.1000   eV
 size of standard grid                          :     1.5000
 size of   fine   gmax                          :     8.9652   1/A
 largest prime factor in FFT                    :          5
 finite basis set correction                    : automatic
 number of sample energies                      :          3
           sample  spacing                      :     5.0000   eV

 **************************** Electronic Parameters ****************************

 number of  electrons                           :  32.00
 net charge of system                           :  0.000
 treating system as non-spin-polarized
 number of bands                                :         16

 ********************* Electronic Minimization Parameters **********************

 Method: Treating system as non-metallic,
         and number of  SD  steps               :          1
         and number of  CG  steps               :          4

 total energy / atom convergence tol.           : 0.2000E-05   eV
 eigen-energy convergence tolerance             : 0.1000E-05   eV
 max force / atom convergence tol.              : ignored
 convergence tolerance window                   :          3   cycles
 max. number of SCF cycles                      :        100
 periodic dipole correction                     : NONE

 ************************** Density Mixing Parameters **************************

 density-mixing scheme                          : Pulay
 max. length of mixing history                  :         20
 charge density mixing amplitude                : 0.5000
 cut-off energy for mixing                      :  136.1       eV
 charge density mixing g-vector                 :  1.500       1/A

 ********************** Geometry Optimization Parameters ***********************

 optimization method                            : LBFGS
 max. no. of LBFGS updates                      : unbounded
 preconditioned LBFGS is activated
 preconditioner type                            : EXP
     stabilization constant                     :     0.1000
     parameter A                                :     3.0000
     nearest neighbor distance                  : automatic
     cut-off distance                           : automatic
     parameter mu                               : automatic
 variable cell method                           : fixed basis quality
 max. number of steps                           :        200
 estimated bulk modulus                         :  200.0       GPa
 estimated <frequency>                          :  1668.       cm-1
 geom line minimiser                            : on
 with line minimiser tolerance                  :     0.4000
 total energy convergence tolerance             : 0.2000E-04   eV/atom
        max ionic |force| tolerance             : 0.5000E-01   eV/A
 max ionic |displacement| tolerance             : 0.2000E-02   A
   max |stress component| tolerance             : 0.1000       GPa
 convergence tolerance window                   :          2   steps
 backup results every                           :          5   steps
 write geom trajectory file                     : on

                                      Unit Cell
        Real Lattice(A)                      Reciprocal Lattice(1/A)
     5.4300000     0.0000000     0.0000000        1.157124366   0.000000000   0.000000000
     0.0000000     5.4300000     0.0000000        0.000000000   1.157124366   0.000000000
     0.0000000     0.0000000     5.4300000        0.000000000   0.000000000   1.157124366

                       Lattice parameters(A)       Cell Angles
                    a =      5.430000          alpha =   90.000000
                    b =      5.430000          beta  =   90.000000
                    c =      5.430000          gamma =   90.000000

                       Current cell volume =           160.103007       A**3
                                   density =             1.403372   AMU/A**3
                                           =             2.330353     g/cm^3

                                     Cell Contents
[...]
------------------------------------------------------------------------ <-- SCF
SCF loop      Energy                           Energy gain       Timer   <-- SCF
                                               per atom          (sec)   <-- SCF
------------------------------------------------------------------------ <-- SCF
Initial  -1.38325071E+003                                         12.00  <-- SCF
      1  -1.38350687E+003                    3.20199385E-002      12.02  <-- SCF
      2  -1.38350719E+003                    3.96438778E-005      12.02  <-- SCF
      3  -1.38350746E+003                    3.39862960E-005      12.03  <-- SCF
      4  -1.38350751E+003                    5.86330265E-006      12.05  <-- SCF
      5  -1.38350751E+003                    2.27686597E-007      12.06  <-- SCF
      6  -1.38350751E+003                   -7.38011326E-009      12.06  <-- SCF
------------------------------------------------------------------------ <-- SCF

[...]

 For future reference: finite basis dEtot/dlog(Ecut) =      -4.720138eV
 Total energy corrected for finite basis set =   -1383.497892 eV

 *********** Symmetrised Stress Tensor ***********
 *          Cartesian components (GPa)           *
 *             x             y             z     *
 *  x    -70.191124     -0.000000      0.000000  *
 *  y     -0.000000    -70.191124     -0.000000  *
 *  z      0.000000     -0.000000    -70.191124  *
 *  Pressure:   70.1911                          *
 EXP precond LBFGS => estimated nearest neighbor distance :  2.351       A
 EXP precond LBFGS => estimated cutoff distance :  4.703       A
 EXP precond LBFGS => estimated parameter mu :  1.000       eV/A**2
 LBFGS: finished iteration     0 with enthalpy= -1.38349789E+003 eV

 +-----------+-----------------+-----------------+------------+-----+ <-- LBFGS
 | Parameter |      value      |    tolerance    |    units   | OK? | <-- LBFGS
 +-----------+-----------------+-----------------+------------+-----+ <-- LBFGS
 |  dE/ion   |   0.000000E+000 |   2.000000E-005 |         eV | No  | <-- LBFGS
 |   Smax    |   7.019112E+001 |   1.000000E-001 |        GPa | No  | <-- LBFGS
 +-----------+-----------------+-----------------+------------+-----+ <-- LBFGS

 Starting LBFGS iteration          1 ...

 +------------+-------------+-------------+-----------------+ <-- min LBFGS
 |    Step    |   lambda    |   F.delta'  |    enthalpy     | <-- min LBFGS
 +------------+-------------+-------------+-----------------+ <-- min LBFGS
 |  previous  |    0.000000 |    4.464587 |    -1383.497892 | <-- min LBFGS
 +------------+-------------+-------------+-----------------+ <-- min LBFGS

 LBFGS: starting iteration         1 with trial guess (lambda=  0.416524)

[...]

                Current cell volume =           184.666052 A**3
                            density =             1.216683 amu/A**3
                                    =             2.020349 g/cm^3

------------------------------------------------------------------------ <-- SCF
SCF loop      Energy                           Energy gain       Timer   <-- SCF
                                               per atom          (sec)   <-- SCF
------------------------------------------------------------------------ <-- SCF
Initial  -1.37197226E+003                                         12.48  <-- SCF
      1  -1.37434915E+003                    2.97111753E-001      12.48  <-- SCF
      2  -1.37436240E+003                    1.65554807E-003      12.52  <-- SCF
      3  -1.37421257E+003                   -1.87285732E-002      12.53  <-- SCF
      4  -1.37410189E+003                   -1.38340471E-002      12.53  <-- SCF
      5  -1.37410265E+003                    9.43789079E-005      12.58  <-- SCF
      6  -1.37410172E+003                   -1.16632439E-004      12.58  <-- SCF
      7  -1.37410164E+003                   -9.75935529E-006      12.58  <-- SCF
      8  -1.37410156E+003                   -9.65727433E-006      12.62  <-- SCF
      9  -1.37410155E+003                   -1.39555527E-006      12.64  <-- SCF
     10  -1.37410155E+003                    1.68565451E-007      12.66  <-- SCF
------------------------------------------------------------------------ <-- SCF

[...]

 *********** Symmetrised Stress Tensor ***********
 *          Cartesian components (GPa)           *
 *             x             y             z     *
 *  x    -23.677523     -0.000000      0.000000  *
 *  y     -0.000000    -23.677523     -0.000000  *
 *  z      0.000000     -0.000000    -23.677523  *
 *  Pressure:   23.6775                          *

 +------------+-------------+-------------+-----------------+ <-- min LBFGS
 |    Step    |   lambda    |   F.delta'  |    enthalpy     | <-- min LBFGS
 +------------+-------------+-------------+-----------------+ <-- min LBFGS
 |  previous  |    0.000000 |    4.464587 |    -1383.497892 | <-- min LBFGS
 | trial step |    0.416524 |    1.656382 |    -1374.058332 | <-- min LBFGS
 +------------+-------------+-------------+-----------------+ <-- min LBFGS

 LBFGS: improving iteration         1 with line minimization (lambda=  0.624786)

[...]

 +------------+-------------+-------------+-----------------+ <-- min LBFGS
 |    Step    |   lambda    |   F.delta'  |    enthalpy     | <-- min LBFGS
 +------------+-------------+-------------+-----------------+ <-- min LBFGS
 |  previous  |    0.000000 |    4.464587 |    -1383.497892 | <-- min LBFGS
 | trial step |    0.416524 |    1.656382 |    -1374.058332 | <-- min LBFGS
 |  line step |    0.624786 |    1.594480 |    -1375.849089 | <-- min LBFGS
 +------------+-------------+-------------+-----------------+ <-- min LBFGS

 LBFGS: finished iteration     1 with enthalpy= -1.37584909E+003 eV

[...]

 LBFGS: improving iteration         2 with quad minimization (lambda=  1.200018)

[...]

 +------------+-------------+-------------+-----------------+ <-- min LBFGS
 |    Step    |   lambda    |   F.delta'  |    enthalpy     | <-- min LBFGS
 +------------+-------------+-------------+-----------------+ <-- min LBFGS
 |  previous  |    0.000000 |    1.594480 |    -1375.849089 | <-- min LBFGS
 | trial step |    1.000000 |    1.708716 |    -1378.978841 | <-- min LBFGS
 |  line step |   -1.200018 |    3.712347 |    -1388.100655 | <-- min LBFGS
 |  quad step |    1.200018 |    1.850418 |    -1379.646833 | <-- min LBFGS
 +------------+-------------+-------------+-----------------+ <-- min LBFGS

 LBFGS: updated estimated bulk modulus = 183.43945 GPa
 LBFGS: finished iteration     2 with enthalpy= -1.37964683E+003 eV

[...]

 WARNING in geom_xvec_to_mdl - large cell change detected
                             - consider your initial cell

[...]

 LBFGS: reverting to earlier configuration

[...]

 LBFGS: reverting to earlier configuration and reseting inverse Hessian
 LBFGS: updated estimated bulk modulus =  26.25623 GPa
 LBFGS: finished iteration     4 with enthalpy= -1.37041107E+003 eV

[...]

Writing analysis data to Si-gmtopt_5.43_CASTEP_.castep_bin

Writing model to Si-gmtopt_5.43_CASTEP_.check

[...]

 LBFGS: reverting to earlier configuration and reseting inverse Hessian
 LBFGS: finished iteration     5 with enthalpy= -1.37041107E+003 eV

 +-----------+-----------------+-----------------+------------+-----+ <-- LBFGS
 | Parameter |      value      |    tolerance    |    units   | OK? | <-- LBFGS
 +-----------+-----------------+-----------------+------------+-----+ <-- LBFGS
 |  dE/ion   |   1.154470E+000 |   2.000000E-005 |         eV | No  | <-- LBFGS
 |   Smax    |   1.710567E+001 |   1.000000E-001 |        GPa | No  | <-- LBFGS
 +-----------+-----------------+-----------------+------------+-----+ <-- LBFGS

 LBFGS: WARNING - Repeated consecutive reset of inverse Hessian
 LBFGS:           without satisfying convergence criteria which
 LBFGS:           looks like LBFGS has run out of search directions.
 LBFGS: WARNING - Lets try allowing some uphill steps and see if
 LBFGS:           we can get around this barrier.
 LBFGS:         - It is possible that the system may now converge to
 LBFGS:           a stationary point OTHER than the desired minimum.
 LBFGS: Hint    - this may be an indication that either:
 LBFGS:           a) you are using a poor guess at geom_frequency_est
 LBFGS:           and/or geom_modulus_est, or
 LBFGS:           b) you are using unrealistic convergence criteria.
 LBFGS:           Suggest therefore that you consider changing them!

[...]

 LBFGS: reverting to earlier configuration

[...]

 LBFGS: finished iteration     6 with enthalpy= -1.37041107E+003 eV

 +-----------+-----------------+-----------------+------------+-----+ <-- LBFGS
 | Parameter |      value      |    tolerance    |    units   | OK? | <-- LBFGS
 +-----------+-----------------+-----------------+------------+-----+ <-- LBFGS
 |  dE/ion   |   4.983580E-008 |   2.000000E-005 |         eV | Yes | <-- LBFGS
 |   Smax    |   1.710255E+001 |   1.000000E-001 |        GPa | No  | <-- LBFGS
 +-----------+-----------------+-----------------+------------+-----+ <-- LBFGS

[...]

 LBFGS: reverting to earlier configuration and reseting inverse Hessian
 LBFGS: updated estimated bulk modulus =  24.15564 GPa
 LBFGS: finished iteration     7 with enthalpy= -1.37041107E+003 eV

[...]

 Starting LBFGS iteration          8 ...

 +------------+-------------+-------------+-----------------+ <-- min LBFGS
 |    Step    |   lambda    |   F.delta'  |    enthalpy     | <-- min LBFGS
 +------------+-------------+-------------+-----------------+ <-- min LBFGS
 |  previous  |    0.000000 |    1.490515 |    -1370.411071 | <-- min LBFGS
 +------------+-------------+-------------+-----------------+ <-- min LBFGS

 LBFGS: starting iteration         8 with trial guess (lambda=  0.150686)

[...]

 +------------+-------------+-------------+-----------------+ <-- min LBFGS
 |    Step    |   lambda    |   F.delta'  |    enthalpy     | <-- min LBFGS
 +------------+-------------+-------------+-----------------+ <-- min LBFGS
 |  previous  |    0.000000 |    1.490515 |    -1370.411071 | <-- min LBFGS
 | trial step |    0.150686 |    1.756985 |    -1374.035643 | <-- min LBFGS
 +------------+-------------+-------------+-----------------+ <-- min LBFGS

 LBFGS: improving iteration         8 with line minimization (lambda= -0.150686)

[...]

 +------------+-------------+-------------+-----------------+ <-- min LBFGS
 |    Step    |   lambda    |   F.delta'  |    enthalpy     | <-- min LBFGS
 +------------+-------------+-------------+-----------------+ <-- min LBFGS
 |  previous  |    0.000000 |    1.490515 |    -1370.411071 | <-- min LBFGS
 | trial step |    0.150686 |    1.756985 |    -1374.035643 | <-- min LBFGS
 |  line step |   -0.150686 |    1.850740 |    -1379.646837 | <-- min LBFGS
 +------------+-------------+-------------+-----------------+ <-- min LBFGS

 LBFGS: improving iteration         8 with quad minimization (lambda=  0.301373)

[...]

------------------------------------------------------------------------ <-- SCF
SCF loop      Energy                           Energy gain       Timer   <-- SCF
                                               per atom          (sec)   <-- SCF
------------------------------------------------------------------------ <-- SCF
Initial  -1.36611643E+003                                         21.84  <-- SCF
      1  -1.38126545E+003                    1.89362763E+000      21.88  <-- SCF
      2  -1.38158641E+003                    4.01201709E-002      21.91  <-- SCF
      3  -1.38021357E+003                   -1.71604873E-001      21.92  <-- SCF
      4  -1.37884724E+003                   -1.70791217E-001      21.92  <-- SCF
      5  -1.37892472E+003                    9.68505947E-003      21.94  <-- SCF
      6  -1.37889868E+003                   -3.25496619E-003      21.94  <-- SCF
      7  -1.37889889E+003                    2.62014758E-005      21.98  <-- SCF
      8  -1.37889889E+003                   -7.97018856E-007      22.02  <-- SCF
      9  -1.37889890E+003                    9.93377891E-007      22.02  <-- SCF
------------------------------------------------------------------------ <-- SCF

Final energy =  -1378.898895877     eV
(energy not corrected for finite basis set)

[...]

 +------------+-------------+-------------+-----------------+ <-- min LBFGS
 |    Step    |   lambda    |   F.delta'  |    enthalpy     | <-- min LBFGS
 +------------+-------------+-------------+-----------------+ <-- min LBFGS
 |  previous  |    0.000000 |    1.490515 |    -1370.411071 | <-- min LBFGS
 | trial step |    0.150686 |    1.756985 |    -1374.035643 | <-- min LBFGS
 |  line step |   -0.150686 |    1.850740 |    -1379.646837 | <-- min LBFGS
 |  quad step |    0.301373 |    2.359233 |    -1378.887728 | <-- min LBFGS
 +------------+-------------+-------------+-----------------+ <-- min LBFGS

 LBFGS: reverting to earlier configuration and reseting inverse Hessian
 LBFGS: finished iteration     8 with enthalpy= -1.37041107E+003 eV

 +-----------+-----------------+-----------------+------------+-----+ <-- LBFGS
 | Parameter |      value      |    tolerance    |    units   | OK? | <-- LBFGS
 +-----------+-----------------+-----------------+------------+-----+ <-- LBFGS
 |  dE/ion   |   4.983580E-008 |   2.000000E-005 |         eV | Yes | <-- LBFGS
 |   Smax    |   1.710255E+001 |   1.000000E-001 |        GPa | No  | <-- LBFGS
 +-----------+-----------------+-----------------+------------+-----+ <-- LBFGS

 LBFGS: WARNING - Repeated consecutive reset of inverse Hessian
 LBFGS:           without satisfying convergence criteria which
 LBFGS:           looks like LBFGS has run out of search directions.
 LBFGS: WARNING - Terminating LBFGS loop.
 LBFGS: WARNING - Geometry optimization failed to converge after          8 steps

 LBFGS: Final Configuration:

                                      Unit Cell
        Real Lattice(A)              Reciprocal Lattice(1/A)
     6.3560601    -0.0000000     0.0000000        0.988534594   0.000000000  -0.000000000
    -0.0000000     6.3560601     0.0000000        0.000000000   0.988534594  -0.000000000
     0.0000000     0.0000000     6.3560601       -0.000000000  -0.000000000   0.988534594

                       Lattice parameters(A)       Cell Angles
                    a =      6.356060          alpha =   90.000000
                    b =      6.356060          beta  =   90.000000
                    c =      6.356060          gamma =   90.000000

                Current cell volume =           256.781652 A**3
                            density =             0.874985 amu/A**3
                                    =             1.452946 g/cm^3

 LBFGS: Final Enthalpy     = -1.37041107E+003 eV
 LBFGS: Final bulk modulus =      24.15564 GPa

  *** There were at least     6 warnings during this run ***
  *** => please check the whole of this file carefully!  ***

 ******************************** Symmetrised Forces ********************************
 *                           Cartesian components (eV/A)                            *
 *                         x                    y                    z              *
 * Si              1      0.00000             -0.00000              0.00000         *
 * Si              2      0.00000             -0.00000             -0.00000         *
 * Si              3      0.00000             -0.00000             -0.00000         *
 * Si              4     -0.00000             -0.00000             -0.00000         *
 * Si              5      0.00000              0.00000             -0.00000         *
 * Si              6      0.00000              0.00000              0.00000         *
 * Si              7     -0.00000              0.00000              0.00000         *
 * Si              8     -0.00000              0.00000              0.00000         *

 *********** Symmetrised Stress Tensor ***********
 *          Cartesian components (GPa)           *
 *             x             y             z     *
 *  x    -17.102551     -0.000000      0.000000  *
 *  y     -0.000000    -17.102551     -0.000000  *
 *  z      0.000000     -0.000000    -17.102551  *
 *  Pressure:   17.1026                          *

Writing analysis data to Si-gmtopt_5.43_CASTEP_.castep_bin

Writing model to Si-gmtopt_5.43_CASTEP_.check

 A BibTeX formatted list of references used in this run has been written to
 Si-gmtopt_5.43_CASTEP_.bib

Initialisation time =     10.88 s
Calculation time    =     11.27 s
Finalisation time   =      0.05 s
Total time          =     22.19 s

Overall parallel efficiency rating: Poor (39%)

Data was distributed by:-
G-vector (12-way); efficiency rating: Poor (40%)

Parallel notes:
1) Calculation only took 22.2 s, so efficiency estimates may be inaccurate.